Solving original (integer) problem with strategy gdp.hull...
--- Job model.gms Start 02/16/26 18:35:54 52.2.0 d8e408be LEX-LEG x86 64bit/Linux
--- Applying:
    /package/gams/52.2/gmsprmun.txt
--- GAMS Parameters defined
    Input /local/scratch/a/sgusev/repos/k_means/data/gams_scip_gdp.hull/no_mode/2026-02-16_18-35-53/original/model.gms
    Output /local/scratch/a/sgusev/repos/k_means/data/gams_scip_gdp.hull/no_mode/2026-02-16_18-35-53/original/output.lst
    ScrDir /local/scratch/a/sgusev/repos/k_means/data/gams_scip_gdp.hull/no_mode/2026-02-16_18-35-53/original/225a/
    SysDir /package/gams/52.2/
    CurDir /local/scratch/a/sgusev/repos/k_means/data/gams_scip_gdp.hull/no_mode/2026-02-16_18-35-53/original/
    LogOption 3
    AppendLog 1
Licensee: David Bernal / SECQUOIA Research Group         G251008+0003Ac-GEN
          Purdue University, Davidson School of Chemical EngineeringDCE4838
          225a/gamslice.dat
          5a82958a-fbca-4a23
          node:66820903 mem:995 cores:48 ipport:37507 v:2                  
          Evaluation license: Not for commercial or production use
          The time-limited license stops working on : Jun 30, 2027
System information: 48 physical cores and 995 Gb physical memory detected
GAMS 52.2.0   Copyright (C) 1987-2025 GAMS Development. All rights reserved
--- Starting compilation
--- model.gms(6115) 2 Mb
--- $echo File /local/scratch/a/sgusev/repos/k_means/data/gams_scip_gdp.hull/no_mode/2026-02-16_18-35-53/original/scip.opt
--- model.gms(8910) 3 Mb
--- Starting execution: elapsed 0:00:00.029
--- model.gms(6125) 4 Mb
--- Generating MINLP model GAMS_MODEL
--- model.gms(6129) 6 Mb
---   1,874 rows  854 columns  4,529 non-zeroes
---   3,944 nl-code  476 nl-non-zeroes
---   68 discrete-columns
--- Range statistics (absolute non-zero finite values)
--- RHS       [min, max] : [ 5.807E-05, 1.000E+00] - Zero values observed as well
--- Bound     [min, max] : [ 1.000E+00, 1.700E+02] - Zero values observed as well
--- Matrix    [min, max] : [ 2.232E-02, 1.700E+02]
--- model.gms(6129) 4 Mb
--- Executing SCIP (Solvelink=5): elapsed 0:00:00.038

SCIP             52.2.0 d8e408be Dec 8, 2025           LEG x86 64bit/Linux    
SCIP version 9.2.4 (a94f778ac8)
Copyright (c) 2002-2025 Zuse Institute Berlin (ZIB)

External libraries: 
  CPLEX 22.1.2.0       Linear Programming Solver developed by IBM (www.cplex.com)
  CppAD 20180000.0     Algorithmic Differentiation of C++ algorithms developed by B. Bell (github.com/coin-or/CppAD)
  PaPILO 2.4.4         parallel presolve for integer and linear optimization (github.com/scipopt/papilo) (built with TBB) [GitHash: 7c826d50]
  Nauty 2.8.9          Computing Graph Automorphism Groups by Brendan D. McKay (users.cecs.anu.edu.au/~bdm/nauty)
  sassy 1.1            Symmetry preprocessor by Markus Anders (github.com/markusa4/sassy)
  Ipopt 3.14.19        Interior Point Optimizer developed by A. Waechter et.al. (github.com/coin-or/Ipopt)

reading option file /local/scratch/a/sgusev/repos/k_means/data/gams_scip_gdp.hull/no_mode/2026-02-16_18-35-53/original/scip.opt
non-default parameter settings:
limits/time = 300
limits/gap = 1e-06
limits/absgap = 1e-10
lp/threads = 1
misc/printreason = FALSE
numerics/dualfeastol = 1e-06
parallel/maxnthreads = 1
nlpi/ipopt/linear_solver = "ma27"
nlpi/ipopt/linear_system_scaling = "mc19"

original problem has 853 variables (68 bin, 0 int, 785 cont) and 1873 constraints

all 1 solutions given by solution candidate storage are infeasible

presolving:
(round 1, fast)       17 del vars, 0 del conss, 0 add conss, 0 chg bounds, 0 chg sides, 0 chg coeffs, 0 upgd conss, 0 impls, 17 clqs
(round 2, fast)       17 del vars, 0 del conss, 0 add conss, 0 chg bounds, 17 chg sides, 0 chg coeffs, 0 upgd conss, 0 impls, 17 clqs
(round 3, exhaustive) 17 del vars, 0 del conss, 0 add conss, 0 chg bounds, 17 chg sides, 0 chg coeffs, 1445 upgd conss, 0 impls, 17 clqs
   (0.1s) probing cycle finished: starting next cycle
   (0.1s) symmetry computation started: requiring (bin +, int +, cont +), (fixed: bin -, int -, cont -)
   (0.1s) no symmetry present (symcode time: 0.00)
presolving (4 rounds: 4 fast, 2 medium, 2 exhaustive):
 17 deleted vars, 0 deleted constraints, 0 added constraints, 0 tightened bounds, 0 added holes, 17 changed sides, 0 changed coefficients
 3672 implications, 17 cliques
presolved problem has 836 variables (68 bin, 0 int, 0 impl, 768 cont) and 1873 constraints
   1428 constraints of type <varbound>
     17 constraints of type <setppc>
    360 constraints of type <linear>
     68 constraints of type <nonlinear>
Presolving Time: 0.12

 time | node  | left  |LP iter|LP it/n|mem/heur|mdpt |vars |cons |rows |cuts |sepa|confs|strbr|  dualbound   | primalbound  |  gap   | compl. 
  0.3s|     1 |     0 |  1247 |     - |    30M |   0 |2944 |1873 |4612 |   0 |  0 |   0 |   0 | 0.000000e+00 |      --      |    Inf | unknown
p 0.4s|     1 |     0 |  1406 |     - |  clique|   0 |2944 |1873 |4612 |   0 |  0 |   0 |   0 | 0.000000e+00 | 2.540263e+01 |    Inf | unknown
  0.4s|     1 |     0 |  1836 |     - |    32M |   0 |2944 |1873 |4720 | 108 |  1 |   0 |   0 | 0.000000e+00 | 2.540263e+01 |    Inf | unknown
  0.4s|     1 |     0 |  1836 |     - |    32M |   0 |2944 |1873 |4703 | 108 |  1 |   0 |   0 | 0.000000e+00 | 2.540263e+01 |    Inf | unknown
  0.5s|     1 |     0 |  2257 |     - |    32M |   0 |2944 |1873 |4879 | 284 |  2 |   0 |   0 | 0.000000e+00 | 2.540263e+01 |    Inf | unknown
  0.6s|     1 |     0 |  2521 |     - |    33M |   0 |2944 |1873 |4996 | 401 |  3 |   0 |   0 | 0.000000e+00 | 2.540263e+01 |    Inf | unknown
  0.6s|     1 |     0 |  2814 |     - |    34M |   0 |2944 |1873 |5119 | 524 |  4 |   0 |   0 | 0.000000e+00 | 2.540263e+01 |    Inf | unknown
  0.7s|     1 |     0 |  3050 |     - |    35M |   0 |2944 |1873 |5212 | 617 |  5 |   0 |   0 | 0.000000e+00 | 2.540263e+01 |    Inf | unknown
  0.7s|     1 |     0 |  3235 |     - |    36M |   0 |2944 |1873 |5323 | 728 |  6 |   0 |   0 | 0.000000e+00 | 2.540263e+01 |    Inf | unknown
  0.8s|     1 |     0 |  3429 |     - |    37M |   0 |2944 |1873 |5424 | 829 |  7 |   0 |   0 | 0.000000e+00 | 2.540263e+01 |    Inf | unknown
  0.8s|     1 |     0 |  3652 |     - |    37M |   0 |2944 |1873 |5513 | 918 |  8 |   0 |   0 | 0.000000e+00 | 2.540263e+01 |    Inf | unknown
  0.9s|     1 |     0 |  3856 |     - |    38M |   0 |2944 |1873 |5605 |1010 |  9 |   0 |   0 | 0.000000e+00 | 2.540263e+01 |    Inf | unknown
  1.0s|     1 |     0 |  4037 |     - |    39M |   0 |2944 |1873 |5679 |1084 | 10 |   0 |   0 | 0.000000e+00 | 2.540263e+01 |    Inf | unknown
  1.0s|     1 |     0 |  4296 |     - |    39M |   0 |2944 |1873 |5755 |1160 | 11 |   0 |   0 | 0.000000e+00 | 2.540263e+01 |    Inf | unknown
  1.1s|     1 |     0 |  4605 |     - |    40M |   0 |2944 |1873 |5836 |1241 | 12 |   0 |   0 | 0.000000e+00 | 2.540263e+01 |    Inf | unknown
 time | node  | left  |LP iter|LP it/n|mem/heur|mdpt |vars |cons |rows |cuts |sepa|confs|strbr|  dualbound   | primalbound  |  gap   | compl. 
  1.2s|     1 |     0 |  4743 |     - |    41M |   0 |2944 |1873 |3571 |1313 | 13 |   0 |   0 | 0.000000e+00 | 2.540263e+01 |    Inf | unknown
  1.2s|     1 |     0 |  4899 |     - |    41M |   0 |2944 |1873 |3652 |1394 | 14 |   0 |   0 | 0.000000e+00 | 2.540263e+01 |    Inf | unknown
  6.5s|     1 |     0 | 50966 |     - |    42M |   0 |2944 |1856 |3652 |1394 | 14 |   0 |   0 | 0.000000e+00 | 2.540263e+01 |    Inf | unknown
  6.5s|     1 |     0 | 51070 |     - |    42M |   0 |2944 |1856 |3726 |1468 | 15 |   0 |   0 | 0.000000e+00 | 2.540263e+01 |    Inf | unknown
  6.6s|     1 |     0 | 51165 |     - |    42M |   0 |2944 |1856 |3796 |1538 | 16 |   0 |   0 | 0.000000e+00 | 2.540263e+01 |    Inf | unknown
  6.6s|     1 |     0 | 51249 |     - |    43M |   0 |2944 |1856 |3861 |1603 | 17 |   0 |   0 | 0.000000e+00 | 2.540263e+01 |    Inf | unknown
  6.7s|     1 |     0 | 51317 |     - |    43M |   0 |2944 |1856 |3443 |1658 | 18 |   0 |   0 | 0.000000e+00 | 2.540263e+01 |    Inf | unknown
  6.7s|     1 |     0 | 51453 |     - |    44M |   0 |2944 |1856 |3490 |1705 | 19 |   0 |   0 | 0.000000e+00 | 2.540263e+01 |    Inf | unknown
  6.7s|     1 |     0 | 51616 |     - |    44M |   0 |2944 |1856 |3555 |1770 | 20 |   0 |   0 | 0.000000e+00 | 2.540263e+01 |    Inf | unknown
  6.8s|     1 |     0 | 51748 |     - |    44M |   0 |2944 |1856 |3627 |1842 | 21 |   0 |   0 | 0.000000e+00 | 2.540263e+01 |    Inf | unknown
  6.8s|     1 |     0 | 51903 |     - |    44M |   0 |2944 |1856 |3678 |1893 | 22 |   0 |   0 | 0.000000e+00 | 2.540263e+01 |    Inf | unknown
  6.8s|     1 |     0 | 52012 |     - |    44M |   0 |2944 |1856 |3740 |1955 | 23 |   0 |   0 | 0.000000e+00 | 2.540263e+01 |    Inf | unknown
  6.9s|     1 |     0 | 52137 |     - |    44M |   0 |2944 |1856 |3372 |2004 | 24 |   0 |   0 | 0.000000e+00 | 2.540263e+01 |    Inf | unknown
  6.9s|     1 |     0 | 52273 |     - |    44M |   0 |2944 |1856 |3430 |2062 | 25 |   0 |   0 | 0.000000e+00 | 2.540263e+01 |    Inf | unknown
L12.5s|     1 |     0 | 52416 |     - |    rens|   0 |2944 |1856 |3430 |2062 | 25 |   0 |   0 | 0.000000e+00 | 2.078064e+01 |    Inf | unknown
 time | node  | left  |LP iter|LP it/n|mem/heur|mdpt |vars |cons |rows |cuts |sepa|confs|strbr|  dualbound   | primalbound  |  gap   | compl. 
 12.8s|     1 |     0 | 52416 |     - |    49M |   0 |2944 |1856 |3430 |2062 | 25 |   0 |   0 | 0.000000e+00 | 2.078064e+01 |    Inf | unknown
 12.8s|     1 |     0 | 52544 |     - |    49M |   0 |2944 |1856 |3490 |2122 | 26 |   0 |   0 | 0.000000e+00 | 2.078064e+01 |    Inf | unknown
 12.8s|     1 |     0 | 52579 |     - |    49M |   0 |2944 |1856 |3501 |2133 | 27 |   0 |   0 | 0.000000e+00 | 2.078064e+01 |    Inf | unknown
 12.9s|     1 |     0 | 52593 |     - |    49M |   0 |2944 |1856 |3501 |2133 | 27 |   0 |   1 | 0.000000e+00 | 2.078064e+01 |    Inf | unknown
 12.9s|     1 |     0 | 52709 |     - |    49M |   0 |2944 |1856 |3261 |2183 | 28 |   0 |   1 | 0.000000e+00 | 2.078064e+01 |    Inf | unknown
 12.9s|     1 |     0 | 52741 |     - |    49M |   0 |2944 |1856 |3273 |2195 | 29 |   0 |   1 | 0.000000e+00 | 2.078064e+01 |    Inf | unknown
 12.9s|     1 |     0 | 52770 |     - |    49M |   0 |2944 |1856 |3273 |2195 | 29 |   0 |   2 | 0.000000e+00 | 2.078064e+01 |    Inf | unknown
 12.9s|     1 |     0 | 52861 |     - |    49M |   0 |2944 |1856 |3336 |2258 | 30 |   0 |   2 | 0.000000e+00 | 2.078064e+01 |    Inf | unknown
 12.9s|     1 |     0 | 52869 |     - |    49M |   0 |2944 |1856 |3341 |2263 | 31 |   0 |   2 | 0.000000e+00 | 2.078064e+01 |    Inf | unknown
 13.0s|     1 |     0 | 52903 |     - |    49M |   0 |2944 |1856 |3341 |2263 | 31 |   0 |   3 | 0.000000e+00 | 2.078064e+01 |    Inf | unknown
 13.0s|     1 |     0 | 53001 |     - |    49M |   0 |2944 |1856 |3071 |2323 | 32 |   0 |   3 | 0.000000e+00 | 2.078064e+01 |    Inf | unknown
 13.0s|     1 |     0 | 53024 |     - |    49M |   0 |2944 |1856 |3081 |2333 | 33 |   0 |   3 | 0.000000e+00 | 2.078064e+01 |    Inf | unknown
 13.0s|     1 |     0 | 53035 |     - |    49M |   0 |2944 |1856 |3081 |2333 | 33 |   0 |   4 | 0.000000e+00 | 2.078064e+01 |    Inf | unknown
 13.0s|     1 |     0 | 53127 |     - |    49M |   0 |2944 |1856 |3138 |2390 | 34 |   0 |   4 | 0.000000e+00 | 2.078064e+01 |    Inf | unknown
 13.0s|     1 |     0 | 53139 |     - |    49M |   0 |2944 |1856 |3150 |2402 | 35 |   0 |   4 | 0.000000e+00 | 2.078064e+01 |    Inf | unknown
 time | node  | left  |LP iter|LP it/n|mem/heur|mdpt |vars |cons |rows |cuts |sepa|confs|strbr|  dualbound   | primalbound  |  gap   | compl. 
 13.0s|     1 |     0 | 53144 |     - |    49M |   0 |2944 |1856 |3150 |2402 | 35 |   0 |   5 | 0.000000e+00 | 2.078064e+01 |    Inf | unknown
 13.1s|     1 |     0 | 53217 |     - |    49M |   0 |2944 |1856 |3063 |2448 | 36 |   0 |   5 | 0.000000e+00 | 2.078064e+01 |    Inf | unknown
 13.1s|     1 |     0 | 53235 |     - |    49M |   0 |2944 |1856 |3069 |2454 | 37 |   0 |   5 | 0.000000e+00 | 2.078064e+01 |    Inf | unknown
 13.1s|     1 |     0 | 53238 |     - |    49M |   0 |2944 |1856 |3069 |2454 | 37 |   0 |   6 | 0.000000e+00 | 2.078064e+01 |    Inf | unknown
 13.1s|     1 |     0 | 53350 |     - |    49M |   0 |2944 |1856 |3127 |2512 | 38 |   0 |   6 | 0.000000e+00 | 2.078064e+01 |    Inf | unknown
 13.1s|     1 |     0 | 53380 |     - |    49M |   0 |2944 |1856 |3145 |2530 | 39 |   0 |   6 | 0.000000e+00 | 2.078064e+01 |    Inf | unknown
 13.1s|     1 |     0 | 53449 |     - |    49M |   0 |2944 |1856 |3145 |2530 | 39 |   0 |   7 | 0.000000e+00 | 2.078064e+01 |    Inf | unknown
 13.2s|     1 |     0 | 53535 |     - |    49M |   0 |2944 |1856 |3075 |2593 | 40 |   0 |   7 | 0.000000e+00 | 2.078064e+01 |    Inf | unknown
 13.2s|     1 |     0 | 53541 |     - |    49M |   0 |2944 |1856 |3079 |2597 | 41 |   0 |   7 | 0.000000e+00 | 2.078064e+01 |    Inf | unknown
 13.2s|     1 |     0 | 53562 |     - |    49M |   0 |2944 |1856 |3079 |2597 | 41 |   0 |   8 | 0.000000e+00 | 2.078064e+01 |    Inf | unknown
 13.2s|     1 |     0 | 53676 |     - |    49M |   0 |2944 |1856 |3144 |2662 | 42 |   0 |   8 | 0.000000e+00 | 2.078064e+01 |    Inf | unknown
 13.2s|     1 |     0 | 53713 |     - |    49M |   0 |2944 |1856 |3154 |2672 | 43 |   0 |   8 | 0.000000e+00 | 2.078064e+01 |    Inf | unknown
 13.2s|     1 |     0 | 53718 |     - |    49M |   0 |2944 |1856 |3154 |2672 | 43 |   0 |   9 | 0.000000e+00 | 2.078064e+01 |    Inf | unknown
 13.3s|     1 |     0 | 53807 |     - |    49M |   0 |2944 |1856 |3073 |2722 | 44 |   0 |   9 | 0.000000e+00 | 2.078064e+01 |    Inf | unknown
 13.3s|     1 |     0 | 53819 |     - |    49M |   0 |2944 |1856 |3083 |2732 | 45 |   0 |   9 | 0.000000e+00 | 2.078064e+01 |    Inf | unknown
 time | node  | left  |LP iter|LP it/n|mem/heur|mdpt |vars |cons |rows |cuts |sepa|confs|strbr|  dualbound   | primalbound  |  gap   | compl. 
 13.3s|     1 |     0 | 53821 |     - |    49M |   0 |2944 |1856 |3083 |2732 | 45 |   0 |  10 | 0.000000e+00 | 2.078064e+01 |    Inf | unknown
 13.3s|     1 |     0 | 53893 |     - |    49M |   0 |2944 |1856 |3126 |2775 | 46 |   0 |  10 | 0.000000e+00 | 2.078064e+01 |    Inf | unknown
 13.3s|     1 |     0 | 53899 |     - |    49M |   0 |2944 |1856 |3128 |2777 | 47 |   0 |  10 | 0.000000e+00 | 2.078064e+01 |    Inf | unknown
 13.3s|     1 |     0 | 53899 |     - |    49M |   0 |2944 |1856 |3128 |2777 | 47 |   0 |  11 | 0.000000e+00 | 2.078064e+01 |    Inf | unknown
 13.3s|     1 |     0 | 53968 |     - |    49M |   0 |2944 |1856 |3158 |2807 | 48 |   0 |  11 | 0.000000e+00 | 2.078064e+01 |    Inf | unknown
 13.3s|     1 |     0 | 53981 |     - |    50M |   0 |2944 |1856 |3027 |2814 | 49 |   0 |  11 | 0.000000e+00 | 2.078064e+01 |    Inf | unknown
 13.3s|     1 |     0 | 53996 |     - |    50M |   0 |2944 |1856 |3027 |2814 | 49 |   0 |  12 | 0.000000e+00 | 2.078064e+01 |    Inf | unknown
 13.4s|     1 |     0 | 54036 |     - |    50M |   0 |2944 |1856 |3072 |2859 | 50 |   0 |  12 | 0.000000e+00 | 2.078064e+01 |    Inf | unknown
 13.4s|     1 |     0 | 54037 |     - |    50M |   0 |2944 |1856 |3073 |2860 | 51 |   0 |  12 | 0.000000e+00 | 2.078064e+01 |    Inf | unknown
 13.4s|     1 |     0 | 54038 |     - |    50M |   0 |2944 |1856 |3073 |2860 | 51 |   0 |  13 | 0.000000e+00 | 2.078064e+01 |    Inf | unknown
 13.4s|     1 |     0 | 54136 |     - |    50M |   0 |2944 |1856 |3121 |2908 | 52 |   0 |  13 | 0.000000e+00 | 2.078064e+01 |    Inf | unknown
 13.4s|     1 |     0 | 54150 |     - |    50M |   0 |2944 |1856 |3029 |2920 | 53 |   0 |  13 | 0.000000e+00 | 2.078064e+01 |    Inf | unknown
 13.4s|     1 |     0 | 54159 |     - |    50M |   0 |2944 |1856 |3029 |2920 | 53 |   0 |  14 | 0.000000e+00 | 2.078064e+01 |    Inf | unknown
 13.4s|     1 |     0 | 54268 |     - |    50M |   0 |2944 |1856 |3105 |2996 | 54 |   0 |  14 | 0.000000e+00 | 2.078064e+01 |    Inf | unknown
 13.4s|     1 |     0 | 54277 |     - |    50M |   0 |2944 |1856 |3111 |3002 | 55 |   0 |  14 | 0.000000e+00 | 2.078064e+01 |    Inf | unknown
 time | node  | left  |LP iter|LP it/n|mem/heur|mdpt |vars |cons |rows |cuts |sepa|confs|strbr|  dualbound   | primalbound  |  gap   | compl. 
 13.5s|     1 |     0 | 54280 |     - |    50M |   0 |2944 |1856 |3111 |3002 | 55 |   0 |  15 | 0.000000e+00 | 2.078064e+01 |    Inf | unknown
 13.5s|     1 |     0 | 54346 |     - |    50M |   0 |2944 |1856 |3183 |3074 | 56 |   0 |  15 | 0.000000e+00 | 2.078064e+01 |    Inf | unknown
 13.5s|     1 |     0 | 54358 |     - |    50M |   0 |2944 |1856 |3045 |3079 | 57 |   0 |  15 | 0.000000e+00 | 2.078064e+01 |    Inf | unknown
 13.5s|     1 |     0 | 54420 |     - |    50M |   0 |2944 |1856 |3045 |3079 | 57 |   0 |  16 | 0.000000e+00 | 2.078064e+01 |    Inf | unknown
 13.5s|     1 |     0 | 54481 |     - |    50M |   0 |2944 |1856 |3109 |3143 | 58 |   0 |  16 | 0.000000e+00 | 2.078064e+01 |    Inf | unknown
 13.5s|     1 |     0 | 54502 |     - |    50M |   0 |2944 |1856 |3114 |3148 | 59 |   0 |  16 | 0.000000e+00 | 2.078064e+01 |    Inf | unknown
 13.5s|     1 |     2 | 54502 |     - |    50M |   0 |2944 |1856 |3114 |3148 | 59 |   0 |  16 | 0.000000e+00 | 2.078064e+01 |    Inf | unknown
r13.6s|     2 |     3 | 54632 |46577.0 |shifting|   1 |2944 |1856 |2971 |3263 |  2 |   0 |  16 | 0.000000e+00 | 1.962295e+01 |    Inf | unknown
d14.4s|    18 |    19 | 62149 |3182.0 |adaptive|   8 |2944 |1856 |3405 |7522 |  2 |   0 |  16 | 0.000000e+00 | 1.960880e+01 |    Inf | unknown
 20.4s|   100 |   101 |111588 |1045.8 |    66M |  14 |2944 |1856 |3855 |  29k|  7 |   0 |  16 | 0.000000e+00 | 1.960880e+01 |    Inf | unknown
L21.4s|   118 |   119 |116445 | 926.4 |    gins|  15 |2944 |1856 |3254 |  33k|  2 |   0 |  16 | 0.000000e+00 | 1.903518e+01 |    Inf | unknown
 26.6s|   200 |   201 |145933 | 692.9 |    86M |  19 |2944 |1856 |3541 |  53k|  5 |   0 |  16 | 0.000000e+00 | 1.903518e+01 |    Inf | unknown
L27.7s|   218 |   219 |153105 | 668.4 |    gins|  19 |2944 |1856 |3812 |  58k| 11 |   0 |  16 | 0.000000e+00 | 1.781602e+01 |    Inf | unknown
 32.5s|   300 |   301 |183195 | 585.8 |   104M |  19 |2944 |1856 |3755 |  76k|  7 |   0 |  16 | 0.000000e+00 | 1.781602e+01 |    Inf | unknown
L33.6s|   318 |   319 |192017 | 580.3 |    gins|  19 |2944 |1856 |3962 |  80k|  2 |   0 |  19 | 0.000000e+00 | 1.715687e+01 |    Inf | unknown
 time | node  | left  |LP iter|LP it/n|mem/heur|mdpt |vars |cons |rows |cuts |sepa|confs|strbr|  dualbound   | primalbound  |  gap   | compl. 
 38.5s|   400 |   401 |222119 | 536.5 |   116M |  19 |2944 |1856 |3554 | 100k|  2 |   0 |  19 | 0.000000e+00 | 1.715687e+01 |    Inf | unknown
L43.4s|   481 |   482 |249538 | 503.1 |    alns|  22 |2944 |1856 |4036 | 118k| 10 |   0 |  19 | 0.000000e+00 | 1.669949e+01 |    Inf | unknown
 44.8s|   500 |   501 |257500 | 499.9 |   125M |  23 |2944 |1856 |4212 | 122k| 12 |   0 |  19 | 0.000000e+00 | 1.669949e+01 |    Inf | unknown
 50.6s|   600 |   601 |294149 | 477.6 |   136M |  23 |2944 |1856 |3920 | 144k|  9 |   0 |  28 | 0.000000e+00 | 1.669949e+01 |    Inf | unknown
L55.7s|   681 |   682 |322745 | 462.8 |    rins|  23 |2944 |1856 |3753 | 163k|  2 |   0 |  28 | 0.000000e+00 | 1.584023e+01 |    Inf | unknown
 56.8s|   700 |   701 |328244 | 458.1 |   143M |  23 |2944 |1856 |4020 | 167k|  9 |   0 |  28 | 0.000000e+00 | 1.584023e+01 |    Inf | unknown
 62.4s|   800 |   801 |383360 | 469.7 |   155M |  25 |2944 |1856 |3675 | 185k|  2 |   0 |  43 | 0.000000e+00 | 1.584023e+01 |    Inf | unknown
L67.7s|   881 |   882 |417664 | 465.5 |crossove|  25 |2944 |1856 |3884 | 204k|  3 |   0 |  43 | 0.000000e+00 | 1.463713e+01 |    Inf | unknown
 69.0s|   900 |   901 |424995 | 463.8 |   168M |  25 |2944 |1856 |3932 | 208k|  9 |   0 |  43 | 0.000000e+00 | 1.463713e+01 |    Inf | unknown
 75.4s|  1000 |  1001 |461807 | 454.2 |   179M |  25 |2944 |1856 |3589 | 231k|  2 |   0 |  46 | 0.000000e+00 | 1.463713e+01 |    Inf | unknown
 81.1s|  1100 |  1101 |498002 | 445.8 |   183M |  25 |2944 |1856 |3871 | 254k|  2 |   0 |  46 | 0.000000e+00 | 1.463713e+01 |    Inf | unknown
 88.6s|  1200 |  1201 |535975 | 440.3 |   197M |  25 |2944 |1856 |3731 | 276k|  9 |   0 |  46 | 0.000000e+00 | 1.463713e+01 |    Inf | unknown
 94.6s|  1300 |  1301 |566494 | 429.9 |   206M |  25 |2944 |1856 |3960 | 296k| 11 |   0 |  46 | 0.000000e+00 | 1.463713e+01 |    Inf | unknown
  101s|  1400 |  1401 |600236 | 423.3 |   211M |  25 |2944 |1856 |3677 | 318k|  2 |   0 |  47 | 0.000000e+00 | 1.463713e+01 |    Inf | unknown
  107s|  1500 |  1501 |633673 | 417.4 |   222M |  25 |2944 |1856 |4036 | 340k| 13 |   0 |  47 | 0.000000e+00 | 1.463713e+01 |    Inf | unknown
 time | node  | left  |LP iter|LP it/n|mem/heur|mdpt |vars |cons |rows |cuts |sepa|confs|strbr|  dualbound   | primalbound  |  gap   | compl. 
  113s|  1600 |  1601 |661543 | 408.7 |   227M |  25 |2944 |1856 |4211 | 361k|  8 |   0 |  47 | 0.000000e+00 | 1.463713e+01 |    Inf | unknown
L 117s|  1675 |  1676 |685748 | 404.8 |    rins|  25 |2944 |1856 |4055 | 378k|  2 |   0 |  47 | 0.000000e+00 | 1.392271e+01 |    Inf | unknown
  119s|  1700 |  1701 |690986 | 402.0 |   231M |  28 |2944 |1856 |3944 | 382k|  3 |   0 |  47 | 0.000000e+00 | 1.392271e+01 |    Inf | unknown
L 124s|  1781 |  1782 |721212 | 400.6 |    gins|  29 |2944 |1856 |3411 | 402k|  2 |   0 |  47 | 0.000000e+00 | 1.365988e+01 |    Inf | unknown
  125s|  1800 |  1801 |727382 | 399.8 |   243M |  29 |2944 |1856 |4066 | 406k| 10 |   0 |  47 | 0.000000e+00 | 1.365988e+01 |    Inf | unknown
  131s|  1900 |  1901 |761135 | 396.6 |   248M |  29 |2944 |1856 |3873 | 425k|  2 |   0 |  50 | 0.000000e+00 | 1.365988e+01 |    Inf | unknown
  138s|  2000 |  2001 |790193 | 391.3 |   253M |  29 |2944 |1856 |4377 | 446k|  9 |   0 |  50 | 0.000000e+00 | 1.365988e+01 |    Inf | unknown
  144s|  2100 |  2101 |827808 | 390.5 |   260M |  29 |2944 |1856 |4169 | 465k|  9 |   0 |  53 | 0.000000e+00 | 1.365988e+01 |    Inf | unknown
  150s|  2200 |  2201 |866591 | 390.4 |   268M |  29 |2944 |1856 |4317 | 485k| 11 |   0 |  57 | 0.000000e+00 | 1.365988e+01 |    Inf | unknown
  155s|  2300 |  2301 |925244 | 399.0 |   271M |  33 |2944 |1856 |3954 | 499k|  9 |   0 |  67 | 0.000000e+00 | 1.365988e+01 |    Inf | unknown
  161s|  2400 |  2401 |954089 | 394.3 |   276M |  34 |2944 |1856 |4204 | 517k|  4 |   0 |  82 | 0.000000e+00 | 1.365988e+01 |    Inf | unknown
  167s|  2500 |  2501 |  1002k| 397.9 |   280M |  37 |2944 |1856 |3875 | 535k|  0 |   0 |  83 | 0.000000e+00 | 1.365988e+01 |    Inf | unknown
  173s|  2600 |  2601 |  1053k| 402.4 |   290M |  39 |2944 |1856 |4129 | 554k|  9 |   0 |  91 | 0.000000e+00 | 1.365988e+01 |    Inf | unknown
  179s|  2700 |  2701 |  1119k| 412.0 |   298M |  41 |2944 |1856 |3782 | 573k|  2 |   0 |  91 | 0.000000e+00 | 1.365988e+01 |    Inf | unknown
  185s|  2800 |  2801 |  1182k| 419.5 |   302M |  43 |2944 |1856 |3845 | 591k|  2 |   0 |  98 | 0.000000e+00 | 1.365988e+01 |    Inf | unknown
 time | node  | left  |LP iter|LP it/n|mem/heur|mdpt |vars |cons |rows |cuts |sepa|confs|strbr|  dualbound   | primalbound  |  gap   | compl. 
  189s|  2900 |  2901 |  1253k| 429.7 |   307M |  43 |2944 |1856 |4037 | 603k| 11 |   0 | 113 | 0.000000e+00 | 1.365988e+01 |    Inf | unknown
  195s|  3000 |  3001 |  1294k| 429.0 |   315M |  43 |2944 |1856 |4303 | 625k| 11 |   0 | 130 | 0.000000e+00 | 1.365988e+01 |    Inf | unknown
  201s|  3100 |  3101 |  1329k| 426.4 |   321M |  43 |2944 |1856 |4157 | 646k|  9 |   0 | 130 | 0.000000e+00 | 1.365988e+01 |    Inf | unknown
  207s|  3200 |  3201 |  1373k| 426.9 |   330M |  43 |2944 |1856 |3886 | 669k|  2 |   0 | 137 | 0.000000e+00 | 1.365988e+01 |    Inf | unknown
  214s|  3300 |  3301 |  1440k| 434.1 |   339M |  43 |2944 |1856 |4034 | 689k|  0 |   0 | 163 | 0.000000e+00 | 1.365988e+01 |    Inf | unknown
  219s|  3400 |  3401 |  1517k| 444.2 |   343M |  45 |2944 |1856 |4034 | 705k|  3 |   0 | 175 | 0.000000e+00 | 1.365988e+01 |    Inf | unknown
  226s|  3500 |  3501 |  1564k| 444.9 |   351M |  45 |2944 |1856 |3826 | 728k|  0 |   0 | 192 | 0.000000e+00 | 1.365988e+01 |    Inf | unknown
  231s|  3600 |  3601 |  1630k| 450.7 |   357M |  47 |2944 |1856 |3594 | 747k|  2 |   0 | 194 | 0.000000e+00 | 1.365988e+01 |    Inf | unknown
  238s|  3700 |  3701 |  1680k| 452.2 |   366M |  47 |2944 |1856 |3743 | 769k|  2 |   0 | 217 | 0.000000e+00 | 1.365988e+01 |    Inf | unknown
  245s|  3800 |  3787 |  1739k| 455.7 |   372M |  47 |2944 |1856 |4648 | 791k|  2 |   0 | 233 | 0.000000e+00 | 1.365988e+01 |    Inf | unknown
  250s|  3900 |  3877 |  1783k| 455.4 |   376M |  47 |2944 |1856 |4155 | 812k| 10 |   0 | 246 | 0.000000e+00 | 1.365988e+01 |    Inf | unknown
  256s|  4000 |  3977 |  1824k| 454.3 |   386M |  47 |2944 |1856 |4308 | 835k|  9 |   0 | 261 | 0.000000e+00 | 1.365988e+01 |    Inf | unknown
  261s|  4100 |  4077 |  1888k| 458.8 |   389M |  47 |2944 |1856 |3972 | 848k|  0 |   0 | 261 | 0.000000e+00 | 1.365988e+01 |    Inf | unknown
  266s|  4200 |  4177 |  1927k| 457.1 |   396M |  47 |2944 |1856 |4070 | 871k|  2 |   0 | 263 | 0.000000e+00 | 1.365988e+01 |    Inf | unknown
  272s|  4300 |  4277 |  1998k| 463.1 |   400M |  47 |2944 |1856 |4438 | 889k| 10 |   0 | 265 | 0.000000e+00 | 1.365988e+01 |    Inf | unknown
 time | node  | left  |LP iter|LP it/n|mem/heur|mdpt |vars |cons |rows |cuts |sepa|confs|strbr|  dualbound   | primalbound  |  gap   | compl. 
  278s|  4400 |  4377 |  2072k| 469.4 |   407M |  47 |2944 |1856 |4524 | 908k| 12 |   0 | 265 | 0.000000e+00 | 1.365988e+01 |    Inf | unknown
  283s|  4500 |  4463 |  2127k| 471.1 |   411M |  47 |2944 |1856 |3795 | 925k|  2 |   0 | 300 | 0.000000e+00 | 1.365988e+01 |    Inf | unknown
  290s|  4600 |  4563 |  2221k| 481.4 |   419M |  47 |2944 |1856 |4156 | 944k|  8 |   0 | 347 | 0.000000e+00 | 1.365988e+01 |    Inf | unknown
  297s|  4700 |  4659 |  2351k| 498.6 |   424M |  47 |2944 |1856 |4684 | 956k|  0 |   0 | 369 | 0.000000e+00 | 1.365988e+01 |    Inf | unknown

SCIP Status        : solving was interrupted [time limit reached]
Solving Time (sec) : 300.00
Solving Nodes      : 4745
Primal Bound       : +1.36598766388299e+01 (16 solutions)
Dual Bound         : +0.00000000000000e+00
Gap                : infinite


--- Reading solution for model GAMS_MODEL
***
*** Solver did not provide marginals for model GAMS_MODEL
***
--- Executing after solve: elapsed 0:05:00.348
--- model.gms(6132) 4 Mb
--- model.gms(8910) 6 Mb
--- Putfile results /local/scratch/a/sgusev/repos/k_means/data/gams_scip_gdp.hull/no_mode/2026-02-16_18-35-53/original/results.dat
--- Putfile statresults /local/scratch/a/sgusev/repos/k_means/data/gams_scip_gdp.hull/no_mode/2026-02-16_18-35-53/original/resultsstat.dat
*** Status: Normal completion
--- Job model.gms Stop 02/16/26 18:40:54 elapsed 0:05:00.352
Original problem solved. Time taken: 301.01241397857666 seconds
Original objective value: 13.659876638829932
